c File: data_files/evolved_graphs/g3670.col
c
c Auto generated graph
c
p edge 100 1107
e 1 2
e 1 66
e 1 73
e 1 74
e 1 81
e 1 86
e 1 88
e 1 94
e 1 95
e 1 98
e 1 100
e 2 5
e 2 7
e 2 11
e 2 21
e 2 65
e 2 85
e 2 87
e 2 91
e 2 94
e 3 6
e 3 42
e 3 71
e 3 72
e 3 85
e 3 90
e 3 98
e 4 5
e 4 76
e 4 85
e 4 86
e 4 87
e 4 91
e 4 92
e 4 96
e 4 97
e 4 100
e 5 8
e 5 74
e 5 86
e 5 87
e 5 88
e 5 90
e 5 97
e 5 100
e 6 19
e 6 20
e 6 22
e 6 36
e 6 49
e 6 53
e 6 85
e 6 97
e 7 14
e 7 85
e 7 89
e 7 90
e 7 91
e 7 92
e 7 96
e 7 97
e 7 99
e 8 11
e 8 12
e 8 19
e 8 23
e 8 24
e 8 32
e 8 33
e 8 34
e 8 39
e 8 43
e 8 50
e 8 52
e 8 59
e 8 61
e 8 65
e 8 66
e 8 80
e 8 83
e 8 84
e 8 91
e 8 93
e 8 97
e 9 14
e 9 15
e 9 16
e 9 20
e 9 22
e 9 24
e 9 28
e 9 31
e 9 37
e 9 40
e 9 44
e 9 47
e 9 50
e 9 53
e 9 57
e 9 64
e 9 70
e 9 82
e 9 84
e 9 88
e 9 93
e 9 95
e 9 98
e 9 99
e 9 100
e 10 11
e 10 14
e 10 17
e 10 25
e 10 38
e 10 43
e 10 46
e 10 47
e 10 52
e 10 59
e 10 60
e 10 64
e 10 66
e 10 68
e 10 71
e 10 73
e 10 79
e 10 86
e 10 88
e 10 94
e 10 95
e 10 96
e 10 98
e 10 100
e 11 16
e 11 18
e 11 33
e 11 37
e 11 38
e 11 39
e 11 46
e 11 48
e 11 53
e 11 57
e 11 59
e 11 72
e 11 84
e 11 86
e 11 91
e 11 93
e 11 94
e 11 95
e 11 98
e 11 99
e 12 16
e 12 17
e 12 23
e 12 24
e 12 26
e 12 30
e 12 37
e 12 38
e 12 40
e 12 41
e 12 43
e 12 44
e 12 45
e 12 51
e 12 54
e 12 58
e 12 60
e 12 69
e 12 70
e 12 72
e 12 73
e 12 78
e 12 80
e 12 85
e 12 88
e 12 91
e 12 92
e 12 93
e 12 94
e 12 96
e 12 98
e 12 99
e 13 29
e 13 31
e 13 40
e 13 44
e 13 50
e 13 57
e 13 58
e 13 59
e 13 60
e 13 63
e 13 68
e 13 70
e 13 71
e 13 72
e 13 74
e 13 75
e 13 96
e 13 97
e 13 99
e 13 100
e 14 18
e 14 19
e 14 24
e 14 25
e 14 36
e 14 38
e 14 39
e 14 41
e 14 49
e 14 50
e 14 51
e 14 58
e 14 59
e 14 62
e 14 63
e 14 64
e 14 65
e 14 68
e 14 72
e 14 75
e 14 78
e 14 79
e 14 87
e 14 88
e 14 95
e 14 96
e 15 16
e 15 21
e 15 22
e 15 24
e 15 25
e 15 29
e 15 31
e 15 33
e 15 36
e 15 41
e 15 46
e 15 53
e 15 57
e 15 68
e 15 70
e 15 73
e 15 75
e 15 80
e 15 84
e 15 85
e 15 92
e 15 97
e 16 19
e 16 26
e 16 28
e 16 29
e 16 34
e 16 35
e 16 41
e 16 46
e 16 58
e 16 67
e 16 71
e 16 73
e 16 84
e 16 90
e 16 92
e 16 93
e 16 100
e 17 19
e 17 24
e 17 30
e 17 32
e 17 34
e 17 42
e 17 44
e 17 45
e 17 46
e 17 47
e 17 49
e 17 51
e 17 58
e 17 60
e 17 62
e 17 67
e 17 78
e 17 79
e 17 82
e 17 86
e 17 87
e 17 91
e 17 92
e 17 95
e 17 99
e 18 20
e 18 22
e 18 34
e 18 39
e 18 41
e 18 55
e 18 58
e 18 63
e 18 68
e 18 81
e 18 86
e 18 90
e 18 97
e 18 98
e 19 20
e 19 23
e 19 27
e 19 28
e 19 35
e 19 38
e 19 41
e 19 42
e 19 49
e 19 59
e 19 69
e 19 79
e 19 84
e 19 85
e 19 86
e 19 92
e 19 96
e 19 97
e 20 22
e 20 25
e 20 33
e 20 34
e 20 38
e 20 40
e 20 43
e 20 44
e 20 46
e 20 50
e 20 54
e 20 55
e 20 64
e 20 69
e 20 71
e 20 73
e 20 82
e 20 83
e 20 85
e 20 86
e 20 88
e 20 89
e 20 93
e 20 97
e 20 98
e 20 99
e 21 24
e 21 30
e 21 38
e 21 43
e 21 51
e 21 53
e 21 60
e 21 61
e 21 63
e 21 66
e 21 67
e 21 69
e 21 70
e 21 75
e 21 81
e 21 85
e 21 90
e 21 95
e 22 23
e 22 24
e 22 29
e 22 42
e 22 55
e 22 60
e 22 61
e 22 70
e 22 72
e 22 73
e 22 78
e 22 81
e 22 85
e 22 87
e 22 93
e 22 98
e 22 99
e 22 100
e 23 27
e 23 30
e 23 31
e 23 32
e 23 33
e 23 34
e 23 39
e 23 45
e 23 50
e 23 52
e 23 56
e 23 57
e 23 58
e 23 64
e 23 69
e 23 84
e 23 85
e 23 86
e 23 99
e 24 30
e 24 32
e 24 33
e 24 40
e 24 41
e 24 46
e 24 48
e 24 49
e 24 51
e 24 53
e 24 56
e 24 57
e 24 63
e 24 67
e 24 71
e 24 76
e 24 78
e 24 80
e 24 83
e 24 87
e 24 89
e 24 94
e 24 98
e 24 99
e 25 26
e 25 28
e 25 40
e 25 50
e 25 55
e 25 66
e 25 69
e 25 88
e 25 91
e 25 92
e 25 96
e 25 98
e 25 100
e 26 29
e 26 37
e 26 48
e 26 55
e 26 63
e 26 68
e 26 70
e 26 71
e 26 85
e 26 86
e 26 87
e 26 92
e 26 93
e 26 94
e 26 95
e 27 30
e 27 37
e 27 43
e 27 54
e 27 60
e 27 65
e 27 67
e 27 73
e 27 77
e 27 81
e 27 88
e 27 91
e 27 92
e 27 96
e 27 98
e 27 100
e 28 34
e 28 37
e 28 39
e 28 42
e 28 44
e 28 51
e 28 52
e 28 55
e 28 60
e 28 72
e 28 73
e 28 75
e 28 77
e 28 78
e 28 87
e 28 93
e 28 98
e 29 31
e 29 34
e 29 36
e 29 41
e 29 44
e 29 46
e 29 50
e 29 53
e 29 56
e 29 60
e 29 65
e 29 69
e 29 70
e 29 78
e 29 80
e 29 81
e 29 83
e 29 86
e 29 89
e 29 96
e 29 100
e 30 32
e 30 33
e 30 36
e 30 42
e 30 44
e 30 45
e 30 46
e 30 50
e 30 51
e 30 52
e 30 64
e 30 65
e 30 77
e 30 79
e 30 86
e 30 93
e 30 96
e 30 99
e 31 40
e 31 41
e 31 47
e 31 54
e 31 59
e 31 62
e 31 64
e 31 68
e 31 69
e 31 75
e 31 77
e 31 82
e 31 84
e 31 85
e 31 87
e 31 89
e 31 95
e 31 98
e 31 99
e 32 36
e 32 40
e 32 42
e 32 45
e 32 48
e 32 53
e 32 62
e 32 63
e 32 64
e 32 80
e 32 82
e 32 85
e 32 87
e 32 97
e 33 36
e 33 37
e 33 45
e 33 47
e 33 58
e 33 67
e 33 68
e 33 74
e 33 80
e 33 88
e 33 89
e 33 92
e 33 93
e 33 99
e 34 44
e 34 46
e 34 49
e 34 53
e 34 54
e 34 59
e 34 60
e 34 66
e 34 68
e 34 73
e 34 82
e 35 41
e 35 55
e 35 59
e 35 65
e 35 68
e 35 73
e 35 74
e 35 79
e 35 88
e 35 90
e 35 96
e 35 100
e 36 38
e 36 39
e 36 41
e 36 43
e 36 44
e 36 52
e 36 55
e 36 56
e 36 61
e 36 71
e 36 72
e 36 82
e 36 83
e 36 86
e 36 90
e 36 92
e 36 97
e 36 100
e 37 42
e 37 45
e 37 47
e 37 51
e 37 53
e 37 54
e 37 66
e 37 68
e 37 73
e 37 74
e 37 78
e 37 90
e 37 96
e 37 97
e 37 99
e 37 100
e 38 45
e 38 55
e 38 60
e 38 70
e 38 71
e 38 85
e 38 87
e 38 88
e 38 98
e 39 41
e 39 43
e 39 45
e 39 52
e 39 54
e 39 66
e 39 71
e 39 73
e 39 86
e 39 88
e 39 89
e 39 93
e 39 95
e 39 97
e 40 45
e 40 49
e 40 53
e 40 56
e 40 57
e 40 68
e 40 72
e 40 77
e 40 78
e 40 81
e 40 83
e 40 84
e 40 86
e 40 91
e 40 93
e 40 95
e 41 46
e 41 48
e 41 51
e 41 61
e 41 70
e 41 71
e 41 74
e 41 83
e 41 88
e 41 89
e 41 92
e 42 53
e 42 61
e 42 64
e 42 70
e 42 77
e 42 96
e 42 100
e 43 47
e 43 51
e 43 52
e 43 56
e 43 59
e 43 69
e 43 71
e 43 72
e 43 73
e 43 77
e 43 84
e 43 88
e 43 90
e 43 96
e 44 48
e 44 52
e 44 54
e 44 59
e 44 62
e 44 64
e 44 70
e 44 73
e 44 74
e 44 79
e 44 82
e 44 86
e 44 94
e 45 46
e 45 54
e 45 57
e 45 59
e 45 64
e 45 66
e 45 67
e 45 72
e 45 75
e 45 76
e 45 77
e 45 82
e 45 85
e 45 88
e 45 95
e 46 47
e 46 49
e 46 53
e 46 55
e 46 60
e 46 66
e 46 67
e 46 74
e 46 75
e 46 77
e 46 79
e 46 82
e 46 87
e 46 90
e 46 93
e 46 94
e 47 51
e 47 56
e 47 58
e 47 60
e 47 61
e 47 62
e 47 66
e 47 72
e 47 74
e 47 75
e 47 77
e 47 79
e 47 80
e 47 82
e 47 85
e 47 92
e 47 94
e 47 96
e 47 97
e 47 98
e 47 100
e 48 49
e 48 54
e 48 71
e 48 74
e 48 75
e 48 79
e 48 87
e 48 93
e 48 95
e 48 96
e 48 98
e 48 99
e 48 100
e 49 50
e 49 52
e 49 56
e 49 59
e 49 68
e 49 70
e 49 73
e 49 76
e 49 77
e 49 81
e 49 83
e 49 84
e 49 97
e 50 53
e 50 54
e 50 59
e 50 62
e 50 67
e 50 70
e 50 75
e 50 81
e 50 82
e 50 86
e 50 90
e 50 94
e 50 95
e 50 98
e 50 99
e 51 52
e 51 53
e 51 55
e 51 58
e 51 62
e 51 65
e 51 66
e 51 67
e 51 78
e 51 85
e 51 93
e 51 97
e 52 54
e 52 61
e 52 62
e 52 64
e 52 71
e 52 73
e 52 74
e 52 81
e 52 82
e 52 87
e 52 89
e 52 91
e 52 93
e 52 99
e 53 54
e 53 57
e 53 61
e 53 64
e 53 67
e 53 72
e 53 73
e 53 81
e 53 85
e 53 88
e 53 94
e 54 58
e 54 62
e 54 63
e 54 64
e 54 77
e 54 86
e 54 92
e 54 93
e 55 59
e 55 66
e 55 69
e 55 70
e 55 82
e 55 90
e 55 100
e 56 65
e 56 68
e 56 69
e 56 72
e 56 73
e 56 81
e 56 83
e 56 93
e 56 100
e 57 58
e 57 59
e 57 61
e 57 71
e 57 73
e 57 93
e 57 95
e 57 97
e 58 61
e 58 63
e 58 72
e 58 75
e 58 78
e 58 81
e 58 86
e 58 89
e 58 92
e 58 94
e 58 98
e 58 100
e 59 60
e 59 61
e 59 64
e 59 65
e 59 67
e 59 71
e 59 76
e 59 78
e 59 79
e 59 88
e 59 89
e 59 94
e 59 95
e 59 97
e 59 98
e 60 72
e 60 77
e 60 85
e 60 86
e 60 96
e 61 67
e 61 72
e 61 79
e 61 81
e 61 82
e 61 86
e 61 87
e 61 88
e 61 96
e 61 97
e 61 99
e 62 68
e 62 71
e 62 72
e 62 76
e 62 77
e 62 81
e 62 83
e 62 87
e 62 92
e 62 94
e 62 95
e 62 99
e 63 67
e 63 68
e 63 69
e 63 71
e 63 76
e 63 82
e 63 84
e 63 85
e 63 89
e 63 90
e 63 91
e 63 93
e 63 94
e 64 66
e 64 73
e 64 74
e 64 75
e 64 82
e 64 87
e 64 90
e 64 91
e 64 94
e 64 100
e 65 71
e 65 77
e 65 88
e 65 90
e 65 93
e 65 99
e 65 100
e 66 68
e 66 74
e 66 85
e 66 90
e 66 97
e 67 68
e 67 72
e 67 75
e 67 78
e 67 79
e 67 82
e 67 96
e 68 72
e 68 74
e 68 75
e 68 76
e 68 79
e 68 83
e 68 90
e 69 83
e 69 87
e 69 89
e 69 90
e 69 96
e 69 98
e 70 71
e 70 86
e 70 98
e 71 75
e 71 76
e 71 82
e 71 89
e 71 92
e 71 95
e 71 96
e 71 98
e 72 82
e 72 86
e 72 87
e 72 93
e 73 82
e 73 92
e 73 98
e 74 75
e 74 79
e 74 81
e 74 82
e 74 86
e 74 87
e 74 91
e 74 92
e 74 93
e 74 95
e 74 97
e 74 99
e 75 76
e 75 86
e 75 88
e 75 92
e 75 98
e 75 99
e 76 83
e 76 92
e 76 93
e 76 94
e 76 95
e 76 96
e 76 99
e 77 78
e 77 79
e 77 80
e 77 82
e 77 86
e 77 90
e 77 92
e 77 97
e 77 98
e 78 80
e 78 81
e 78 87
e 78 89
e 78 93
e 78 94
e 78 95
e 78 96
e 78 97
e 79 80
e 79 84
e 79 88
e 79 92
e 79 98
e 80 86
e 80 89
e 80 95
e 81 84
e 81 93
e 82 83
e 82 88
e 82 89
e 82 95
e 82 99
e 82 100
e 83 86
e 83 87
e 83 90
e 83 94
e 83 95
e 84 86
e 84 90
e 84 91
e 84 95
e 84 99
e 84 100
e 85 86
e 85 92
e 85 97
e 86 90
e 86 92
e 86 94
e 86 100
e 87 91
e 87 96
e 87 97
e 87 98
e 87 99
e 88 91
e 88 95
e 88 98
e 89 92
e 90 91
e 90 94
e 90 95
e 92 95
e 93 99
e 94 96
e 94 97
e 95 96
e 95 99
e 95 100
e 96 97
